c turning on binary mode checking
c parsing input formula with 259840 variables and 1039924 clauses
c finished parsing, read 32404365 bytes from proof file
c detected empty clause; start verification via backward checking
c 61507 of 1039924 clauses in core                            
c 92714 of 759531 lemmas in core using 1222570 resolution steps
c 0 RAT lemmas in core; 15260 redundant literals in core lemmas
s VERIFIED
c verification time: 8.416 seconds
